NAME : sim141.116474.tour
COMMENT : Length = 116474
COMMENT : Found by LKH [Keld Helsgaun] Sun Sep 16 00:51:31 2018
TYPE : TOUR
DIMENSION : 141
TOUR_SECTION
1
12
17
100
4
106
104
23
77
73
105
32
55
101
66
69
79
85
44
117
37
13
21
82
119
102
98
22
36
86
136
128
132
53
135
5
80
51
95
121
31
83
45
103
122
2
84
111
89
131
92
134
75
56
54
52
99
62
42
120
59
74
40
110
8
91
140
123
47
126
63
6
11
20
33
18
67
43
115
94
7
35
129
139
118
39
25
15
71
96
87
113
138
93
124
97
46
112
109
14
48
88
68
41
130
125
57
60
107
61
116
10
127
29
16
114
28
108
90
78
9
27
70
34
19
65
72
133
24
50
137
26
141
58
3
49
81
30
76
64
38
-1
EOF
